; benchmark generated from python API
(set-info :status unknown)
(declare-fun args_1_8 () (_ BitVec 8))
(declare-fun args_2_8 () (_ BitVec 8))
(declare-fun args_3_8 () (_ BitVec 8))
(declare-fun args_4_8 () (_ BitVec 8))
(declare-fun args_5_16 () (_ BitVec 16))
(declare-fun args_6_16 () (_ BitVec 16))
(declare-fun args_7_16 () (_ BitVec 16))
(declare-fun args_8_16 () (_ BitVec 16))
(declare-fun args_9_16 () (_ BitVec 16))
(declare-fun args_10_32 () (_ BitVec 32))
(declare-fun args_11_32 () (_ BitVec 32))
(declare-fun args_12_32 () (_ BitVec 32))
(declare-fun args_13_32 () (_ BitVec 32))
(declare-fun args_14_32 () (_ BitVec 32))
(declare-fun args_15_64 () (_ BitVec 64))
(declare-fun strlen_563_64 () (_ BitVec 64))
(declare-fun |filesize_file_161_??? _564_64| () (_ BitVec 64))
(assert
 (let ((?x58 ((_ extract 7 7) args_1_8)))
 (let (($x193430 (= (_ bv0 1) ?x58)))
 (let (($x63165 (not $x193430)))
 (let (($x114605 (= (_ bv64 8) args_1_8)))
 (let (($x151490 (not $x114605)))
 (or $x151490 $x63165)))))))
(assert
 (let ((?x146 ((_ extract 7 7) args_2_8)))
 (let (($x63155 (= (_ bv0 1) ?x146)))
 (let (($x77171 (not $x63155)))
 (let (($x223204 (= (_ bv64 8) args_2_8)))
 (let (($x244620 (not $x223204)))
 (or $x244620 $x77171)))))))
(assert
 (let ((?x189 ((_ extract 7 7) args_3_8)))
 (let (($x252302 (= (_ bv0 1) ?x189)))
 (let (($x127406 (not $x252302)))
 (let (($x158557 (= (_ bv64 8) args_3_8)))
 (let (($x94819 (not $x158557)))
 (or $x94819 $x127406)))))))
(assert
 (let ((?x227 ((_ extract 7 7) args_4_8)))
 (let (($x162300 (= (_ bv0 1) ?x227)))
 (let (($x216555 (not $x162300)))
 (let (($x131153 (= (_ bv64 8) args_4_8)))
 (let (($x210881 (not $x131153)))
 (or $x210881 $x216555)))))))
(assert
 (let ((?x244 ((_ extract 15 15) args_5_16)))
 (let (($x215342 (= (_ bv0 1) ?x244)))
 (let (($x134114 (not $x215342)))
 (let ((?x267 ((_ extract 15 8) args_5_16)))
 (let (($x322 (= (_ bv64 8) ?x267)))
 (let (($x26391 (not $x322)))
 (or $x26391 $x134114))))))))
(assert
 (let ((?x444 ((_ extract 15 15) args_6_16)))
 (let (($x24748 (= (_ bv0 1) ?x444)))
 (let (($x100914 (not $x24748)))
 (let ((?x341 ((_ extract 15 8) args_6_16)))
 (let (($x599 (= (_ bv64 8) ?x341)))
 (let (($x202744 (not $x599)))
 (or $x202744 $x100914))))))))
(assert
 (let ((?x826 ((_ extract 15 15) args_7_16)))
 (let (($x132411 (= (_ bv0 1) ?x826)))
 (let (($x197287 (not $x132411)))
 (let ((?x603 ((_ extract 15 8) args_7_16)))
 (let (($x1708 (= (_ bv64 8) ?x603)))
 (let (($x174718 (not $x1708)))
 (or $x174718 $x197287))))))))
(assert
 (let ((?x1836 ((_ extract 15 15) args_8_16)))
 (let (($x187087 (= (_ bv0 1) ?x1836)))
 (let (($x252415 (not $x187087)))
 (let ((?x1929 ((_ extract 15 8) args_8_16)))
 (let (($x4072 (= (_ bv64 8) ?x1929)))
 (let (($x129328 (not $x4072)))
 (or $x129328 $x252415))))))))
(assert
 (let ((?x4290 ((_ extract 15 15) args_9_16)))
 (let (($x108081 (= (_ bv0 1) ?x4290)))
 (let (($x36715 (not $x108081)))
 (let ((?x4071 ((_ extract 15 8) args_9_16)))
 (let (($x7222 (= (_ bv64 8) ?x4071)))
 (let (($x33683 (not $x7222)))
 (or $x33683 $x36715))))))))
(assert
 (let ((?x7446 ((_ extract 31 31) args_10_32)))
 (let (($x94548 (= (_ bv0 1) ?x7446)))
 (let (($x144380 (not $x94548)))
 (let ((?x7223 ((_ extract 31 24) args_10_32)))
 (let (($x7526 (= (_ bv64 8) ?x7223)))
 (let (($x28948 (not $x7526)))
 (or $x28948 $x144380))))))))
(assert
 (let ((?x10896 ((_ extract 31 31) args_11_32)))
 (let (($x216637 (= (_ bv0 1) ?x10896)))
 (let (($x173799 (not $x216637)))
 (let ((?x11007 ((_ extract 31 24) args_11_32)))
 (let (($x15482 (= (_ bv64 8) ?x11007)))
 (let (($x159074 (not $x15482)))
 (or $x159074 $x173799))))))))
(assert
 (let ((?x15369 ((_ extract 31 31) args_12_32)))
 (let (($x38076 (= (_ bv0 1) ?x15369)))
 (let (($x204738 (not $x38076)))
 (let ((?x15543 ((_ extract 31 24) args_12_32)))
 (let (($x20378 (= (_ bv64 8) ?x15543)))
 (let (($x213261 (not $x20378)))
 (or $x213261 $x204738))))))))
(assert
 (let ((?x20354 ((_ extract 31 31) args_13_32)))
 (let (($x60728 (= (_ bv0 1) ?x20354)))
 (let (($x54835 (not $x60728)))
 (let ((?x20248 ((_ extract 31 24) args_13_32)))
 (let (($x27172 (= (_ bv64 8) ?x20248)))
 (let (($x37585 (not $x27172)))
 (or $x37585 $x54835))))))))
(assert
 (let ((?x27058 ((_ extract 31 31) args_14_32)))
 (let (($x127676 (= (_ bv0 1) ?x27058)))
 (let (($x233882 (not $x127676)))
 (let ((?x27286 ((_ extract 31 24) args_14_32)))
 (let (($x50310 (= (_ bv64 8) ?x27286)))
 (let (($x194846 (not $x50310)))
 (or $x194846 $x233882))))))))
(assert
 (let ((?x47161 ((_ extract 63 56) args_15_64)))
 (= (_ bv64 8) ?x47161)))
(assert
 (let ((?x64839 ((_ extract 7 0) args_15_64)))
 (let (($x73078 (= (_ bv0 8) ?x64839)))
 (let ((?x74263 (ite $x73078 (_ bv576460752303357881 64) (_ bv576460752303357882 64))))
 (let ((?x77084 ((_ extract 15 8) args_15_64)))
 (let (($x74427 (= (_ bv0 8) ?x77084)))
 (let ((?x74192 (ite $x74427 (_ bv576460752303357880 64) ?x74263)))
 (let ((?x66434 ((_ extract 23 16) args_15_64)))
 (let (($x72062 (= (_ bv0 8) ?x66434)))
 (let ((?x74672 (ite $x72062 (_ bv576460752303357879 64) ?x74192)))
 (let ((?x69984 ((_ extract 31 24) args_15_64)))
 (let (($x78816 (= (_ bv0 8) ?x69984)))
 (let ((?x76848 (ite $x78816 (_ bv576460752303357878 64) ?x74672)))
 (let ((?x70184 ((_ extract 39 32) args_15_64)))
 (let (($x74466 (= (_ bv0 8) ?x70184)))
 (let ((?x76594 (ite $x74466 (_ bv576460752303357877 64) ?x76848)))
 (let ((?x69352 ((_ extract 47 40) args_15_64)))
 (let (($x72738 (= (_ bv0 8) ?x69352)))
 (let ((?x70367 (ite $x72738 (_ bv576460752303357876 64) ?x76594)))
 (let ((?x74174 ((_ extract 55 48) args_15_64)))
 (let (($x74857 (= (_ bv0 8) ?x74174)))
 (let ((?x74458 (ite $x74857 (_ bv576460752303357875 64) ?x70367)))
 (let ((?x68035 (bvsub ?x74458 (_ bv576460752303357875 64))))
 (= ?x68035 strlen_563_64))))))))))))))))))))))))
(assert
 (bvsgt (_ bv0 64) |filesize_file_161_??? _564_64|))
(maximize args_10_32)
(maximize args_4_8)
(minimize args_13_32)
(minimize args_15_64)
(maximize args_5_16)
(minimize args_8_16)
(minimize args_12_32)
(maximize args_1_8)
(minimize args_7_16)
(maximize strlen_563_64)
(minimize |filesize_file_161_??? _564_64|)
(check-sat)
(get-objectives)
